db/data/2725713311154752130213507288012506021631.z3.out
sat
-------------------
52.496160608
